Results/Experiment 2 Results/New Benchmark/output_p1_0.25_p2_0.00_n_40_10.lp
clingo version 5.4.0
Reading from tempSRTISolver.lp ...
Solving...
Answer: 1
matched(6,4) matched(8,5) matched(1,7) matched(5,8) matched(12,10) matched(11,9) matched(15,14) matched(14,15) matched(18,16) matched(13,19) matched(19,13) matched(22,23) matched(26,24) matched(24,26) matched(29,31) matched(30,32) matched(35,34) matched(34,35) matched(40,37) matched(36,38) matched(33,39) matched(37,40) matched(39,33) matched(2,3) matched(4,6) matched(9,11) matched(10,12) matched(20,17) matched(16,18) matched(17,20) matched(23,22) matched(25,28) matched(27,21) matched(32,30) matched(31,29) matched(3,2) matched(28,25) matched(7,1) matched(38,36) matched(21,27)
Optimization: 421
Answer: 2
matched(6,4) matched(8,5) matched(1,7) matched(5,8) matched(12,10) matched(11,9) matched(16,14) matched(17,15) matched(14,16) matched(18,19) matched(20,13) matched(22,23) matched(26,24) matched(24,26) matched(29,31) matched(30,32) matched(35,34) matched(34,35) matched(40,37) matched(36,38) matched(33,39) matched(37,40) matched(39,33) matched(2,3) matched(4,6) matched(9,11) matched(10,12) matched(15,17) matched(19,18) matched(13,20) matched(23,22) matched(25,28) matched(27,21) matched(32,30) matched(31,29) matched(3,2) matched(28,25) matched(7,1) matched(38,36) matched(21,27)
Optimization: 411
Answer: 3
matched(5,4) matched(4,5) matched(6,7) matched(1,8) matched(11,10) matched(12,9) matched(16,14) matched(17,15) matched(14,16) matched(18,19) matched(20,13) matched(22,23) matched(21,24) matched(27,26) matched(29,31) matched(30,32) matched(35,34) matched(34,35) matched(40,37) matched(39,38) matched(38,39) matched(37,40) matched(36,33) matched(2,3) matched(7,6) matched(10,11) matched(9,12) matched(15,17) matched(19,18) matched(13,20) matched(23,22) matched(25,28) matched(24,21) matched(32,30) matched(31,29) matched(3,2) matched(28,25) matched(8,1) matched(33,36) matched(26,27)
Optimization: 400
Answer: 4
matched(5,4) matched(4,5) matched(6,7) matched(1,8) matched(11,10) matched(12,9) matched(16,14) matched(17,15) matched(14,16) matched(18,19) matched(20,13) matched(22,23) matched(21,24) matched(27,26) matched(29,31) matched(30,32) matched(38,34) matched(39,35) matched(40,37) matched(34,38) matched(35,39) matched(37,40) matched(36,33) matched(2,3) matched(7,6) matched(10,11) matched(9,12) matched(15,17) matched(19,18) matched(13,20) matched(23,22) matched(25,28) matched(24,21) matched(32,30) matched(31,29) matched(3,2) matched(28,25) matched(8,1) matched(33,36) matched(26,27)
Optimization: 396
Answer: 5
matched(5,4) matched(4,5) matched(6,7) matched(1,8) matched(11,10) matched(12,9) matched(16,14) matched(17,15) matched(14,16) matched(18,19) matched(20,13) matched(22,23) matched(21,24) matched(27,26) matched(29,31) matched(30,32) matched(38,34) matched(39,35) matched(36,37) matched(34,38) matched(35,39) matched(33,40) matched(40,33) matched(2,3) matched(7,6) matched(10,11) matched(9,12) matched(15,17) matched(19,18) matched(13,20) matched(23,22) matched(25,28) matched(24,21) matched(32,30) matched(31,29) matched(3,2) matched(28,25) matched(8,1) matched(37,36) matched(26,27)
Optimization: 394
Answer: 6
matched(5,4) matched(4,5) matched(6,7) matched(1,8) matched(11,10) matched(12,9) matched(16,14) matched(17,15) matched(14,16) matched(18,19) matched(20,13) matched(22,23) matched(21,24) matched(27,26) matched(29,31) matched(30,32) matched(36,34) matched(37,35) matched(35,37) matched(39,38) matched(38,39) matched(33,40) matched(40,33) matched(2,3) matched(7,6) matched(10,11) matched(9,12) matched(15,17) matched(19,18) matched(13,20) matched(23,22) matched(25,28) matched(24,21) matched(32,30) matched(31,29) matched(3,2) matched(28,25) matched(8,1) matched(34,36) matched(26,27)
Optimization: 386
Answer: 7
matched(5,4) matched(4,5) matched(6,7) matched(1,8) matched(11,10) matched(12,9) matched(16,14) matched(17,15) matched(14,16) matched(18,19) matched(20,13) matched(22,23) matched(26,24) matched(24,26) matched(29,31) matched(30,32) matched(36,34) matched(37,35) matched(35,37) matched(39,38) matched(38,39) matched(33,40) matched(40,33) matched(2,3) matched(7,6) matched(10,11) matched(9,12) matched(15,17) matched(19,18) matched(13,20) matched(23,22) matched(25,28) matched(27,21) matched(32,30) matched(31,29) matched(3,2) matched(28,25) matched(8,1) matched(34,36) matched(21,27)
Optimization: 379
Answer: 8
matched(2,4) matched(3,5) matched(6,7) matched(1,8) matched(12,10) matched(11,9) matched(16,14) matched(17,15) matched(14,16) matched(18,19) matched(20,13) matched(22,23) matched(26,24) matched(24,26) matched(29,31) matched(30,32) matched(36,34) matched(37,35) matched(35,37) matched(39,38) matched(38,39) matched(33,40) matched(40,33) matched(5,3) matched(7,6) matched(9,11) matched(10,12) matched(15,17) matched(19,18) matched(13,20) matched(23,22) matched(25,28) matched(27,21) matched(32,30) matched(31,29) matched(4,2) matched(28,25) matched(8,1) matched(34,36) matched(21,27)
Optimization: 378
Answer: 9
matched(2,4) matched(3,5) matched(6,7) matched(1,8) matched(11,10) matched(12,9) matched(18,14) matched(19,15) matched(13,16) matched(15,19) matched(16,13) matched(25,23) matched(22,24) matched(27,26) matched(29,31) matched(30,32) matched(36,34) matched(37,35) matched(35,37) matched(39,38) matched(38,39) matched(33,40) matched(40,33) matched(5,3) matched(7,6) matched(10,11) matched(9,12) matched(20,17) matched(14,18) matched(17,20) matched(24,22) matched(21,28) matched(28,21) matched(32,30) matched(31,29) matched(4,2) matched(23,25) matched(8,1) matched(34,36) matched(26,27)
Optimization: 374
Answer: 10
matched(2,4) matched(3,5) matched(6,7) matched(1,8) matched(11,10) matched(12,9) matched(18,14) matched(19,15) matched(17,16) matched(15,19) matched(20,13) matched(25,23) matched(22,24) matched(27,26) matched(29,31) matched(30,32) matched(36,34) matched(37,35) matched(35,37) matched(39,38) matched(38,39) matched(33,40) matched(40,33) matched(5,3) matched(7,6) matched(10,11) matched(9,12) matched(16,17) matched(14,18) matched(13,20) matched(24,22) matched(21,28) matched(28,21) matched(32,30) matched(31,29) matched(4,2) matched(23,25) matched(8,1) matched(34,36) matched(26,27)
Optimization: 370
Answer: 11
matched(2,4) matched(3,5) matched(6,7) matched(1,8) matched(11,10) matched(12,9) matched(16,14) matched(17,15) matched(14,16) matched(18,19) matched(20,13) matched(25,23) matched(22,24) matched(27,26) matched(29,31) matched(30,32) matched(36,34) matched(37,35) matched(35,37) matched(39,38) matched(38,39) matched(33,40) matched(40,33) matched(5,3) matched(7,6) matched(10,11) matched(9,12) matched(15,17) matched(19,18) matched(13,20) matched(24,22) matched(21,28) matched(28,21) matched(32,30) matched(31,29) matched(4,2) matched(23,25) matched(8,1) matched(34,36) matched(26,27)
Optimization: 368
OPTIMUM FOUND

Models       : 11
  Optimum    : yes
Optimization : 368
Calls        : 1
Time         : 0.441s (Solving: 0.10s 1st Model: 0.00s Unsat: 0.05s)
CPU Time     : 0.430s
